certificates/rado_a10_c226_N29.drat
-25 23 -29 0
23 22 -29 0
22 -29 0
d 23 22 -29 0
-29 0
25 0
-1 0
27 21 0
d 11 27 21 0
-23 0
19 0
27 0
22 0
5 0
-13 0
0
